Reading model...
...model read.
creating competitive generators file...
...competitive generators recorded.
Loading data...
.. real-time data read.
Compiling instance...
...instance created.
Creating Offer Mitigation (model will solve as dispatch if TRUE)...
...storage offer mitigation file created
Converting model to MPEC...
...converted
NOTE: initial MIP solve with only storage competitive to get feasible solution
Solving...

Welcome to IBM(R) ILOG(R) CPLEX(R) Interactive Optimizer 12.10.0.0
  with Simplex, Mixed Integer & Barrier Optimizers
5725-A06 5725-A29 5724-Y48 5724-Y49 5724-Y54 5724-Y55 5655-Y21
Copyright IBM Corp. 1988, 2019.  All Rights Reserved.

Type 'help' for a list of available commands.
Type 'help' followed by a command name for more
information on commands.

CPLEX> Logfile 'cplex.log' closed.
Logfile 'C:\Users\wenmi\Desktop\competitiveMPEC\logs\tmpi69rjupc.cplex.log' open.
CPLEX> New value for parallel optimization mode: -1
CPLEX> New value for mixed integer optimality gap tolerance: 0.01
CPLEX> New value for feasibility tolerance: 1e-09
CPLEX> New value for deterministic time limit in ticks: 50000
CPLEX> Problem 'C:\Users\wenmi\Desktop\competitiveMPEC\logs\tmpjdo85l6h.pyomo.lp' read.
Read time = 0.31 sec. (27.74 ticks)
CPLEX> Problem name         : C:\Users\wenmi\Desktop\competitiveMPEC\logs\tmpjdo85l6h.pyomo.lp
Objective sense      : Maximize
Variables            :  107781  [Nneg: 1,  Box: 44056,  Free: 8928,
                                 Binary: 54796]
Objective nonzeros   :   19010
Linear constraints   :  246901  [Less: 82866,  Greater: 118424,  Equal: 45611]
  Nonzeros           :  591869
  RHS nonzeros       :  136227

Variables            : Min LB: -5000.000        Max UB: 1000000.       
Objective nonzeros   : Min   : 0.1666667        Max   : 2500.000       
Linear constraints   :
  Nonzeros           : Min   : 0.1666667        Max   : 1000000.       
  RHS nonzeros       : Min   : 2.000000e-07     Max   : 1000000.       
CPLEX> Version identifier: 12.10.0.0 | 2019-11-26 | 843d4de2ae
CPXPARAM_Parallel                                -1
CPXPARAM_Simplex_Tolerances_Feasibility          1.0000000000000001e-09
CPXPARAM_DetTimeLimit                            50000
CPXPARAM_MIP_Tolerances_MIPGap                   0.01
Tried aggregator 3 times.
MIP Presolve eliminated 172901 rows and 33967 columns.
MIP Presolve added 7727 rows and 0 columns.
MIP Presolve modified 52098 coefficients.
Aggregator did 26093 substitutions.
Reduced MIP has 55634 rows, 47337 columns, and 159290 nonzeros.
Reduced MIP has 18778 binaries, 0 generals, 0 SOSs, and 0 indicators.
Presolve time = 0.34 sec. (337.21 ticks)
Probing fixed 714 vars, tightened 10430 bounds.
Probing time = 0.09 sec. (21.36 ticks)
Tried aggregator 2 times.
Detecting symmetries...
MIP Presolve eliminated 1633 rows and 1456 columns.
MIP Presolve modified 7086 coefficients.
Aggregator did 80 substitutions.
Reduced MIP has 53921 rows, 45801 columns, and 154233 nonzeros.
Reduced MIP has 18059 binaries, 0 generals, 0 SOSs, and 0 indicators.
Presolve time = 0.17 sec. (280.60 ticks)
Probing fixed 5 vars, tightened 403 bounds.
Probing time = 0.23 sec. (29.45 ticks)
Clique table members: 96976.
MIP emphasis: balance optimality and feasibility.
MIP search method: dynamic search.
Parallel mode: opportunistic, using up to 16 threads.
Root relaxation solution time = 0.73 sec. (637.89 ticks)

        Nodes                                         Cuts/
   Node  Left     Objective  IInf  Best Integer    Best Bound    ItCnt     Gap

      0     0      -34.1402    47                    -34.1402       50         
      0     0      -34.1402    47                   Covers: 1       52         
      0     0      -34.1402    47                 Flowcuts: 1       54         
      0     0      -34.1402    47                     Cuts: 5       58         
*     0+    0                         -721.0308      -34.1402            95.27%
      0     9        cutoff           -721.0308      -34.1402      141   95.27%
Elapsed time = 5.64 sec. (4927.63 ticks, tree = 0.02 MB, solutions = 1)
    103    25      -50.6408     2     -721.0308      -45.8267      605   93.64%
    237   103      -58.2521     2     -721.0308      -46.1983     1291   93.59%
    350   138      -58.2585     1     -721.0308      -46.1983     1566   93.59%
    500   224        cutoff           -721.0308      -46.1983     2290   93.59%
    639   293      -57.2968     2     -721.0308      -46.1983     2987   93.59%
    798   365     -163.7105     5     -721.0308      -46.1983     3719   93.59%
    955   444     -182.1371     3     -721.0308      -46.1983     4343   93.59%
   1141   540     -125.9072     4     -721.0308      -46.1983     5422   93.59%
   1321   660      -57.5941     3     -721.0308      -49.3333     6286   93.16%
   2040   983     -182.1371     4     -721.0308      -50.6408     8495   92.98%
Elapsed time = 24.44 sec. (8041.90 ticks, tree = 11.81 MB, solutions = 1)
   2753  1907     -189.4062     5     -721.0308      -50.6408    13942   92.98%
   3435  1933      -61.7847     2     -721.0308      -50.6408    14113   92.98%
   4097  2340      -74.9652     3     -721.0308      -50.6408    16254   92.98%
   4650  2798     -125.9072     5     -721.0308      -50.6408    18938   92.98%

Performing restart 1

Repeating presolve.
Tried aggregator 3 times.
MIP Presolve eliminated 10562 rows and 8368 columns.
MIP Presolve modified 75127 coefficients.
Aggregator did 389 substitutions.
Reduced MIP has 42970 rows, 37044 columns, and 117513 nonzeros.
Reduced MIP has 14445 binaries, 0 generals, 0 SOSs, and 0 indicators.
Presolve time = 0.36 sec. (380.68 ticks)
Tried aggregator 3 times.
MIP Presolve eliminated 1981 rows and 1754 columns.
MIP Presolve modified 23259 coefficients.
Aggregator did 17 substitutions.
Reduced MIP has 40972 rows, 35273 columns, and 112069 nonzeros.
Reduced MIP has 13685 binaries, 0 generals, 0 SOSs, and 0 indicators.
Presolve time = 0.11 sec. (112.21 ticks)
Tried aggregator 2 times.
MIP Presolve eliminated 877 rows and 800 columns.
MIP Presolve modified 15258 coefficients.
Aggregator did 14 substitutions.
Reduced MIP has 40081 rows, 34459 columns, and 109692 nonzeros.
Reduced MIP has 13368 binaries, 0 generals, 0 SOSs, and 0 indicators.
Presolve time = 0.08 sec. (70.38 ticks)
Tried aggregator 2 times.
MIP Presolve eliminated 118 rows and 111 columns.
MIP Presolve modified 15212 coefficients.
Aggregator did 4 substitutions.
Reduced MIP has 39959 rows, 34344 columns, and 109338 nonzeros.
Reduced MIP has 13324 binaries, 0 generals, 0 SOSs, and 0 indicators.
Presolve time = 0.13 sec. (141.57 ticks)
Represolve time = 1.58 sec. (1035.87 ticks)
   4954     0      -34.1402   166     -721.0308      Cuts: 17    35664   92.80%
   4954     0      -34.1402   166     -721.0308       Cuts: 3    35669   92.80%
   4954     0      -34.1402   166     -721.0308       Cuts: 3    35676   92.80%
   4954     0      -35.1932   166     -721.0308       Cuts: 8    35683   92.80%
   4954     0      -38.0357   166     -721.0308      Cuts: 17    35687   92.80%
   4954     0      -38.0357   166     -721.0308       Cuts: 2    35689   92.80%
   4954    10      -51.6338     2     -721.0308      -51.9489    35778   92.80%
   5293    69      -60.5362     2     -721.0308      -51.9489    36294   92.80%
   5548   327      -68.4553     3     -721.0308      -51.9489    37960   92.80%
   5964   449      -60.7300     2     -721.0308      -51.9489    39235   92.80%
   6815  1104      -57.3558     1     -721.0308      -51.9489    48448   92.80%
   7849  1026     -353.2313    11     -721.0308      -51.9489    47202   92.80%
Elapsed time = 68.77 sec. (23091.98 ticks, tree = 10.83 MB, solutions = 1)
   8933  1695     -132.6473    11     -721.0308      -52.7016    54196   92.69%
   9982  2927        cutoff           -721.0308      -54.4854    65979   92.44%
  10944  3708      -62.5625     3     -721.0308      -57.0132    72630   92.09%
  11891  4374      -98.0799     6     -721.0308      -57.0132    77935   92.09%
  12964  6331      -69.5594     3     -721.0308      -57.2968    93520   92.05%
  13998  7188     -649.7948    33     -721.0308      -57.2968   100344   92.05%
  15138  6489      -81.9556     4     -721.0308      -57.2968    94788   92.05%
  16250  7092      -61.6699     4     -721.0308      -57.2968    99643   92.05%
  17340  7343      -68.1229     2     -721.0308      -57.2968   101408   92.05%
  18323 10845     -649.7948    12     -721.0308      -57.2968   132151   92.05%
Elapsed time = 114.58 sec. (32637.43 ticks, tree = 151.10 MB, solutions = 1)
  19399 10347      -90.9700     6     -721.0308      -57.2968   126979   92.05%
  20363 10541      -84.1774     6     -721.0308      -57.2968   128556   92.05%
  21353 11288        cutoff           -721.0308      -57.2968   136081   92.05%
  22402 14650     -117.8271    10     -721.0308      -57.2968   164507   92.05%
  23582 12950      -71.2799     4     -721.0308      -57.2968   150407   92.05%
  24796 13941     -117.8271     9     -721.0308      -57.3017   158525   92.05%
  26037 14862     -101.2392     8     -721.0308      -57.3017   166298   92.05%
  27348 16251      -81.9556     4     -721.0308      -57.3197   177923   92.05%
  28636 19655      -63.9471     3     -721.0308      -57.3197   206057   92.05%
  29912 20757      -63.1070     3     -721.0308      -57.3309   213824   92.05%
Elapsed time = 162.80 sec. (42178.26 ticks, tree = 293.58 MB, solutions = 1)
  31195 20806      -60.5362     2     -721.0308      -57.3378   214218   92.05%
  32339 20856      -58.2585     1     -721.0308      -57.3378   214644   92.05%
  33491 20918      -61.2573     4     -721.0308      -57.3378   215065   92.05%
  34622 21615     -106.5261     9     -721.0308      -57.3378   220085   92.05%
  35682 23990     -141.6602    12     -721.0308      -57.3378   237691   92.05%
  36673 24043     -132.4042    12     -721.0308      -57.3378   238433   92.05%
  37405 24251      -58.2585     1     -721.0308      -57.3378   240164   92.05%
  37619 24919      -58.2585     1     -721.0308      -57.3378   246200   92.05%

Cover cuts applied:  1
Implied bound cuts applied:  5
Flow cuts applied:  4
Mixed integer rounding cuts applied:  3
Gomory fractional cuts applied:  4

Root node processing (before b&c):
  Real time             =    4.80 sec. (4880.69 ticks)
Parallel b&c, 16 threads:
  Real time             =  178.22 sec. (45127.81 ticks)
  Sync time (average)   =    1.09 sec.
  Wait time (average)   =    0.04 sec.
                          ------------
Total (root+branch&cut) =  183.02 sec. (50008.50 ticks)

Solution pool: 1 solution saved.

MIP - Deterministic time limit exceeded, integer feasible:  Objective = -7.2103076151e+02
Current MIP best bound = -5.7355845183e+01 (gap = 663.675, 92.05%)
Solution time =  183.02 sec.  Iterations = 275239  Nodes = 37653 (27622)
Deterministic time = 50008.81 ticks  (273.25 ticks/sec)

CPLEX> Incumbent solution written to file 'C:\Users\wenmi\Desktop\competitiveMPEC\logs\tmp92au6y8i.cplex.sol'.
CPLEX> NOTE: no warmstart specified for MIP iteration, default behavior is true
NOTE: resolving with all competitive generators using storage-only solution to warmstart
Solving...

Welcome to IBM(R) ILOG(R) CPLEX(R) Interactive Optimizer 12.10.0.0
  with Simplex, Mixed Integer & Barrier Optimizers
5725-A06 5725-A29 5724-Y48 5724-Y49 5724-Y54 5724-Y55 5655-Y21
Copyright IBM Corp. 1988, 2019.  All Rights Reserved.

Type 'help' for a list of available commands.
Type 'help' followed by a command name for more
information on commands.

CPLEX> Logfile 'cplex.log' closed.
Logfile 'C:\Users\wenmi\Desktop\competitiveMPEC\logs\tmpg2msqyi6.cplex.log' open.
CPLEX> New value for parallel optimization mode: -1
CPLEX> New value for mixed integer optimality gap tolerance: 0.01
CPLEX> New value for feasibility tolerance: 1e-09
CPLEX> New value for deterministic time limit in ticks: 50000
CPLEX> Problem 'C:\Users\wenmi\Desktop\competitiveMPEC\logs\tmpdjc83nkb.pyomo.lp' read.
Read time = 0.31 sec. (27.78 ticks)
CPLEX> MIP start file 'C:\Users\wenmi\Desktop\competitiveMPEC\logs\tmpdu5u3w0y.cplex.mst' read.
CPLEX> Problem name         : C:\Users\wenmi\Desktop\competitiveMPEC\logs\tmpdjc83nkb.pyomo.lp
Objective sense      : Maximize
Variables            :  109221  [Nneg: 1,  Box: 45496,  Free: 8928,
                                 Binary: 54796]
Objective nonzeros   :   20402
Linear constraints   :  246901  [Less: 82866,  Greater: 118424,  Equal: 45611]
  Nonzeros           :  591869
  RHS nonzeros       :  136227

Variables            : Min LB: -5000.000        Max UB: 1000000.       
Objective nonzeros   : Min   : 0.1666667        Max   : 2500.000       
Linear constraints   :
  Nonzeros           : Min   : 0.1666667        Max   : 1000000.       
  RHS nonzeros       : Min   : 2.000000e-07     Max   : 1000000.       
CPLEX> Version identifier: 12.10.0.0 | 2019-11-26 | 843d4de2ae
CPXPARAM_Parallel                                -1
CPXPARAM_Simplex_Tolerances_Feasibility          1.0000000000000001e-09
CPXPARAM_DetTimeLimit                            50000
CPXPARAM_MIP_Tolerances_MIPGap                   0.01
1 of 1 MIP starts provided solutions.
MIP start 'm1' defined initial solution with objective -536.3158.
Tried aggregator 3 times.
MIP Presolve eliminated 172901 rows and 35407 columns.
MIP Presolve added 7727 rows and 0 columns.
MIP Presolve modified 52098 coefficients.
Aggregator did 26093 substitutions.
Reduced MIP has 55634 rows, 47337 columns, and 159290 nonzeros.
Reduced MIP has 18778 binaries, 0 generals, 0 SOSs, and 0 indicators.
Presolve time = 0.34 sec. (337.93 ticks)
Probing fixed 714 vars, tightened 10430 bounds.
Probing time = 0.09 sec. (21.36 ticks)
Tried aggregator 2 times.
Detecting symmetries...
MIP Presolve eliminated 1633 rows and 1456 columns.
MIP Presolve modified 7086 coefficients.
Aggregator did 80 substitutions.
Reduced MIP has 53921 rows, 45801 columns, and 154233 nonzeros.
Reduced MIP has 18059 binaries, 0 generals, 0 SOSs, and 0 indicators.
Presolve time = 0.17 sec. (280.62 ticks)
Probing fixed 5 vars, tightened 363 bounds.
Probing time = 0.19 sec. (27.38 ticks)
Clique table members: 97565.
MIP emphasis: balance optimality and feasibility.
MIP search method: dynamic search.
Parallel mode: opportunistic, using up to 16 threads.
Root relaxation solution time = 0.61 sec. (594.70 ticks)

        Nodes                                         Cuts/
   Node  Left     Objective  IInf  Best Integer    Best Bound    ItCnt     Gap

*     0+    0                         -536.3158   1.31341e+07              --- 
      0     0      -34.1402    48     -536.3158      -34.1402       29   93.63%
      0     0      -34.1402    48     -536.3158       Cuts: 2       31   93.63%
      0     0      -34.1402    48     -536.3158       Cuts: 5       34   93.63%
      0     0      -34.1402    48     -536.3158       Cuts: 5       37   93.63%
      0    10        cutoff           -536.3158      -45.8267      177   91.46%
Elapsed time = 5.06 sec. (4112.47 ticks, tree = 0.02 MB, solutions = 2)
*     5     8      integral     0     -536.3158      -45.8267      238   91.46%
     73    25        cutoff           -536.3158      -45.8267      634   91.46%
    181    52      -51.6741     2     -536.3158      -45.8267      765   91.46%
    313    67      -57.3060     2     -536.3158      -46.1983     1004   91.39%
    449   130      -58.8984     3     -536.3158      -46.1983     2157   91.39%
    602   146      -60.7300     2     -536.3158      -46.1983     2737   91.39%
    791   285      -61.7847     2     -536.3158      -46.1983     5125   91.39%
   1005   341      -83.8125     3     -536.3158      -46.1983     5566   91.39%
   1194   446    infeasible           -536.3158      -46.1983     6738   91.39%
   1835   818      -58.2585     1     -536.3158      -49.3333     9378   90.80%
Elapsed time = 21.52 sec. (7022.41 ticks, tree = 21.83 MB, solutions = 2)
   2531  1153     -174.9149     5     -536.3158      -49.3333    11753   90.80%
   3175  2024      -73.3335     2     -536.3158      -49.3333    16910   90.80%
   3939  2386      -61.7847     2     -536.3158      -49.3333    18865   90.80%
   4627  2832      -74.9649     2     -536.3158      -49.3333    21400   90.80%
   4993  2953      -57.3309     2     -536.3158      -49.3333    22122   90.80%

Performing restart 1

Repeating presolve.
Tried aggregator 3 times.
MIP Presolve eliminated 10824 rows and 8503 columns.
MIP Presolve modified 64180 coefficients.
Aggregator did 411 substitutions.
Reduced MIP has 42686 rows, 36887 columns, and 116614 nonzeros.
Reduced MIP has 14356 binaries, 0 generals, 0 SOSs, and 0 indicators.
Presolve time = 0.36 sec. (368.84 ticks)
Tried aggregator 3 times.
MIP Presolve eliminated 3314 rows and 3092 columns.
MIP Presolve modified 21319 coefficients.
Aggregator did 47 substitutions.
Reduced MIP has 39325 rows, 33748 columns, and 107451 nonzeros.
Reduced MIP has 13103 binaries, 0 generals, 0 SOSs, and 0 indicators.
Presolve time = 0.09 sec. (106.64 ticks)
Tried aggregator 2 times.
MIP Presolve eliminated 652 rows and 632 columns.
MIP Presolve modified 15244 coefficients.
Aggregator did 7 substitutions.
Reduced MIP has 38666 rows, 33109 columns, and 105702 nonzeros.
Reduced MIP has 12860 binaries, 0 generals, 0 SOSs, and 0 indicators.
Presolve time = 0.13 sec. (120.78 ticks)
Represolve time = 1.28 sec. (865.12 ticks)
   5000     0      -36.7403   154     -536.3158      Cuts: 54    36491   90.56%
   5000     0      -36.7403   154     -536.3158      Cuts: 11    36503   90.56%
   5000     0      -36.7403   154     -536.3158       Cuts: 9    36506   90.56%
   5000     0      -36.7403   154     -536.3158      Fract: 2    36510   90.56%
   5000     0      -36.7403   154     -536.3158      Fract: 3    36514   90.56%
   5000     0      -36.7403   154     -536.3158       Cuts: 5    36520   90.56%
   5000     4        cutoff           -536.3158      -50.6408    36555   90.56%
   5318   181     -154.0383     3     -536.3158      -50.6408    37570   90.56%
   5607   434     -177.4698    11     -536.3158      -50.6408    39845   90.56%
   6315   669     -105.3611     5     -536.3158      -50.6408    41841   90.56%
   7207  1114      -58.8477     3     -536.3158      -56.2254    45868   89.52%
Elapsed time = 62.89 sec. (20285.64 ticks, tree = 11.67 MB, solutions = 2)
   8156  1422      -60.5362     3     -536.3158      -56.2254    48820   89.52%
   9305  3337      -57.3558     1     -536.3158      -57.2968    66712   89.32%
  10437  2401      -61.7847     3     -536.3158      -57.2968    57674   89.32%
  11424  3741      -57.3558     1     -536.3158      -57.2968    70294   89.32%
  12511  5137      -57.3558     1     -536.3158      -57.2968    81531   89.32%
  13552  4446      -62.7480     4     -536.3158      -57.2968    75467   89.32%
  14786  6027      -62.7480     4     -536.3158      -57.2968    87743   89.32%
  16138 10091      -98.6915     5     -536.3158      -57.3048   113000   89.32%
  17553  8455      -58.2585     1     -536.3158      -57.3048   101797   89.32%
  19005  9664      -57.3558     1     -536.3158      -57.3048   110332   89.32%
Elapsed time = 113.66 sec. (29829.64 ticks, tree = 130.35 MB, solutions = 2)
